 vasp.5.4.4 18Apr17 (build Jan 07 2020 13:47:42) complex

 INCAR:
 POTCAR:    PAW_PBE V_sv 02Aug2007
 POTCAR:    PAW_PBE Nb_sv 25May2007
 POTCAR:    PAW_PBE Co 02Aug2007
 POTCAR:    PAW_PBE V_sv 02Aug2007
   VRHFIN =V: p6 d4 s1

   TITEL  = PAW_PBE V_sv 02Aug2007
   POMASS =   50.941; ZVAL   =   13.000    mass and valenz
   ENMAX  =  263.673; ENMIN  =  197.755 eV

 POTCAR:    PAW_PBE Nb_sv 25May2007
   VRHFIN =Nb: 4p5s4d

   TITEL  = PAW_PBE Nb_sv 25May2007
   POMASS =   92.910; ZVAL   =   13.000    mass and valenz
   ENMAX  =  293.235; ENMIN  =  219.927 eV

 POTCAR:    PAW_PBE Co 02Aug2007
   VRHFIN =Co: d8 s1

   TITEL  = PAW_PBE Co 02Aug2007
   POMASS =   58.933; ZVAL   =    9.000    mass and valenz
   ENMAX  =  267.968; ENMIN  =  200.976 eV

  PAW_PBE V_sv 02Aug2007                :
  PAW_PBE Nb_sv 25May2007               :
  PAW_PBE Co 02Aug2007                  :

 POSCAR: V_4Nb_2Co_2 Enum_fcc Terna str
  positions in cartesian coordinates
 exchange correlation table for  LEXCH =        8
   RHO(1)=    0.500       N(1)  =     2000
   RHO(2)=  100.500       N(2)  =     4000

 ion  position               nearest neighbor table
   1  0.000  0.000  0.000-   4 2.71   5 2.71   3 2.71   8 2.71   3 2.71   8 2.71   2 2.71   7 2.71
                             7 2.71   2 2.71
   2  0.500  0.375  0.125-   8 2.71   6 2.71   5 2.71   5 2.71   6 2.71   4 2.71   4 2.71   7 2.71
                             1 2.71   1 2.71
   3  0.500  0.875  0.625-   7 2.71   4 2.71   4 2.71   1 2.71   1 2.71   8 2.71   5 2.71   6 2.71
                             5 2.71   6 2.71
   4  0.000  0.250  0.750-   1 2.71   3 2.71   3 2.71   7 2.71   7 2.71   2 2.71   2 2.71   6 2.71
                             8 2.71   8 2.71
   5  0.000  0.750  0.250-   1 2.71   8 2.71   8 2.71   2 2.71   2 2.71   7 2.71   7 2.71   6 2.71
                             3 2.71   3 2.71
   6  0.000  0.500  0.500-   2 2.71   7 2.71   2 2.71   7 2.71   5 2.71   4 2.71   3 2.71   3 2.71
                             8 2.71   8 2.71
   7  0.500  0.125  0.375-   3 2.71   4 2.71   6 2.71   4 2.71   6 2.71   5 2.71   5 2.71   2 2.71
                             1 2.71   1 2.71
   8  0.500  0.625  0.875-   2 2.71   5 2.71   5 2.71   1 2.71   1 2.71   3 2.71   4 2.71   4 2.71
                             6 2.71   6 2.71

  LATTYP: Found a base centered orthorhombic cell.
 ALAT       =     7.6587820000
 B/A-ratio  =     1.4142135624
 C/A-ratio  =     0.3535534829

  Lattice vectors:

 A1 = (  -3.8293910000,   3.8293910000,  -3.8293910000)
 A2 = (   3.8293910000,  -3.8293910000,  -3.8293910000)
 A3 = (  -1.9146960000,  -1.9146960000,   0.0000000000)

Analysis of symmetry for initial positions (statically):
 Subroutine PRICEL returns:
 Original cell was already a primitive cell.

 Routine SETGRP: Setting up the symmetry group for a
 base centered orthorhombic supercell.

 Subroutine GETGRP returns: Found  8 space group operations
 (whereof  4 operations were pure point group operations)
 out of a pool of  8 trial point group operations.

The static configuration has the point symmetry C_2v.
 The point group associated with its full space group is D_2h.

Analysis of symmetry for dynamics (positions and initial velocities):
 Subroutine PRICEL returns:
 Original cell was already a primitive cell.

[...]

The dynamic configuration has the point symmetry C_2v.
 The point group associated with its full space group is D_2h.

Analysis of structural, dynamic, and magnetic symmetry:
 Subroutine PRICEL returns:
 Original cell was already a primitive cell.

 Routine SETGRP: Setting up the symmetry group for a
 base centered orthorhombic supercell.

 Subroutine GETGRP returns: Found  8 space group operations
 (whereof  4 operations were pure point group operations)
 out of a pool of  8 trial point group operations.

The magnetic configuration has the point symmetry C_2v.
 The point group associated with its full space group is D_2h.

 Subroutine INISYM returns: Found  8 space group operations
 (whereof  4 operations are pure point group operations),
 and found     1 'primitive' translations

 KPOINTS: Dynamic K-point generation: number of ir
  k-points in reciprocal lattice
Space group operators:
 irot       det(A)        alpha          n_x          n_y          n_z        tau_x        tau_y        tau_z
    1     1.000000     0.000001     1.000000     0.000000     0.000000     0.000000     0.000000     0.000000
    2    -1.000000   180.000000     0.707107     0.707107     0.000000     0.000000     0.000000     0.000000
    3     1.000000   180.000000     0.707107    -0.707107     0.000000     0.000000     0.000000     0.000000
    4    -1.000000   180.000000     0.000000     0.000000     1.000000     0.000000     0.000000     0.000000
    5    -1.000000     0.000001     1.000000     0.000000     0.000000     0.000000    -0.750000    -0.250000
    6     1.000000   180.000000     0.707107     0.707107     0.000000     0.000000    -0.750000    -0.250000
    7    -1.000000   180.000000     0.707107    -0.707107     0.000000     0.000000    -0.750000    -0.250000
    8     1.000000   180.000000     0.000000     0.000000     1.000000     0.000000    -0.750000    -0.250000

 SYSTEM =  VNbCo
 POSCAR =  V_4Nb_2Co_2 Enum_fcc Terna str

 Startparameter for this run:
   NWRITE =      2    write-flag & timer
   PREC   = high      normal or accurate (medium, high low for compatibility)
   ISTART =      0    job   : 0-new  1-cont  2-samecut
   ICHARG =      2    charge: 1-file 2-atom 10-const
   ISPIN  =      2    spin polarized calculation?
   LNONCOLLINEAR =      F non collinear calculations
   LSORBIT =      F    spin-orbit coupling
   INIWAV =      1    electr: 0-lowe 1-rand  2-diag
   LASPH  =      F    aspherical Exc in radial PAW
   METAGGA=      F    non-selfconsistent MetaGGA calc.

 Electronic Relaxation 1
   ENCUT  =  410.5 eV  30.17 Ry    5.49 a.u.   4.47 10.96 10.96*2*pi/ulx,y,z
   ENINI  =  410.5     initial cutoff
   ENAUG  =  526.6 eV  augmentation charge cutoff
   NELM   =     60;   NELMIN=  2; NELMDL= -5     # of ELM steps
   EDIFF  = 0.1E-03   stopping-criterion for ELM
   LREAL  =      F    real-space projection
   NLSPLINE    = F    spline interpolate recip. space projectors
   LCOMPAT=      F    compatible to vasp.4.4
   GGA_COMPAT  = T    GGA compatible to vasp.4.4-vasp.4.6
   LMAXPAW     = -100 max onsite density
   LMAXMIX     =    2 max onsite mixed and CHGCAR
   VOSKOWN=      0    Vosko Wilk Nusair interpolation
   ROPT   =    0.00000   0.00000   0.00000
 Ionic relaxation
   EDIFFG = 0.1E-02   stopping-criterion for IOM
   NSW    =      0    number of steps for IOM
   NBLOCK =      1;   KBLOCK =      1    inner block; outer block
   IBRION =     -1    ionic relax: 0-MD 1-quasi-New 2-CG
   NFREE  =      0    steps in history (QN), initial steepest desc. (CG)
   ISIF   =      2    stress and relaxation
   IWAVPR =      0    prediction:  0-non 1-charg 2-wave 3-comb
   ISYM   =      2    0-nonsym 1-usesym 2-fastsym
   LCORR  =      T    Harris-Foulkes like correction to forces

   POTIM  = 0.5000    time-step for ionic-motion
   TEIN   =    0.0    initial temperature
   TEBEG  =    0.0;   TEEND  =   0.0 temperature during run
   SMASS  =  -3.00    Nose mass-parameter (am)
   estimated Nose-frequenzy (Omega)   =  0.10E-29 period in steps =****** mass=  -0.168E-27a.u.
   SCALEE = 1.0000    scale energy and forces
   NPACO  =    256;   APACO  = 16.0  distance and # of slots for P.C.
   PSTRESS=    0.0 pullay stress

  Mass of Ions in am
   POMASS =  50.94 92.91 58.93
  Ionic Valenz
   ZVAL   =  13.00 13.00  9.00
  Atomic Wigner-Seitz radii
  virtual crystal weights
   VCA    =   1.00  1.00  1.00
   NELECT =      96.0000    total number of electrons
   NUPDOWN=      -1.0000    fix difference up-down

 DOS related values:
   EMIN   =  10.00;   EMAX   =-10.00  energy-range for DOS
   EFERMI =   0.00
   ISMEAR =     1;   SIGMA  =   0.10  broadening in eV -4-tet -1-fermi 0-gaus

 Electronic relaxation 2 (details)
   IALGO  =     38    algorithm
   LDIAG  =      T    sub-space diagonalisation (order eigenvalues)
   LSUBROT=      F    optimize rotation matrix (better conditioning)
   TURBO    =      0    0=normal 1=particle mesh
   IRESTART =      0    0=no restart 2=restart with 2 vectors
   NREBOOT  =      0    no. of reboots
   NMIN     =      0    reboot dimension
   EREF     =   0.00    reference energy to select bands
   IMIX   =      4    mixing-type and parameters
     AMIX     =   0.40;   BMIX     =  1.00
     AMIX_MAG =   1.60;   BMIX_MAG =  1.00
     AMIN     =   0.10
     WC   =   100.;   INIMIX=   1;  MIXPRE=   1;  MAXMIX= -45

 Intra band minimization:
   WEIMIN = 0.0000     energy-eigenvalue tresh-hold
   EBREAK =  0.26E-06  absolut break condition
   DEPER  =   0.30     relativ break condition

   TIME   =   0.40     timestep for ELM

  volume/ion in A,a.u.               =      14.04        94.74
  Fermi-wavevector in a.u.,A,eV,Ry     =   1.553670  2.936011 32.842981  2.413891
  Thomas-Fermi vector in A             =   2.657867

 Write flags
   LWAVE        =      F    write WAVECAR
   LDOWNSAMPLE  =      F    k-point downsampling of WAVECAR
   LCHARG       =      T    write CHGCAR
   LVTOT        =      F    write LOCPOT, total local potential
   LVHAR        =      F    write LOCPOT, Hartree potential only
   LELF         =      F    write electronic localiz. function (ELF)
   LORBIT       =     10    0 simple, 1 ext, 2 COOP (PROOUT), +10 PAW based schemes

 Dipole corrections
   LMONO  =      F    monopole corrections only (constant potential shift)
   LDIPOL =      F    correct potential (dipole corrections)
   IDIPOL =      0    1-x, 2-y, 3-z, 4-all directions
   EPSILON=  1.0000000 bulk dielectric constant

 Exchange correlation treatment:
   GGA     =    --    GGA type
   VOSKOWN=      0    Vosko Wilk Nusair interpolation
   LHFCALC =     F    Hartree Fock is set to
   LHFONE  =     F    Hartree Fock one center treatment
   AEXX    =    0.0000 exact exchange contribution

 Linear response parameters
   LEPSILON=     F    determine dielectric tensor
   LRPA    =     F    only Hartree local field effects (RPA)
   LNABLA  =     F    use nabla operator in PAW spheres
   LVEL    =     F    velocity operator in full k-point grid
   LINTERFAST=   F  fast interpolation
   KINTER  =     0    interpolate to denser k-point grid
   CSHIFT  =0.1000    complex shift for real part using Kramers Kronig
   OMEGAMAX=  -1.0    maximum frequency
   DEG_THRESHOLD= 0.2000000E-02 threshold for treating states as degnerate
   RTIME   =   -0.100 relaxation time in fs
  (WPLASMAI=    0.000 imaginary part of plasma frequency in eV, 0.658/RTIME)
   DFIELD  = 0.0000000 0.0000000 0.0000000 field for delta impulse in time

 Orbital magnetization related:
   ORBITALMAG=     F  switch on orbital magnetization
   LCHIMAG   =     F  perturbation theory with respect to B field
   DQ        =  0.001000  dq finite difference perturbation B field
   LLRAUG    =     F  two centre corrections for induced B field

 Static calculation
 charge density and potential will be updated during run
 spin polarized calculation
 Variant of blocked Davidson
[...]

 E-fermi :  10.3579     XC(G=0): -12.8284     alpha+bet :-18.5679

 spin component 1

 k-point     1 :       0.0000    0.0000    0.0000
  band No.  band energies     occupation
      1     -53.7853      1.00000
      2     -53.7199      1.00000
      3     -53.7178      1.00000
      4     -53.6796      1.00000
      5     -44.1085      1.00000
      6     -44.0086      1.00000
      7     -27.8079      1.00000
      8     -27.8053      1.00000
      9     -27.7258      1.00000
     10     -27.5661      1.00000
     11     -27.5019      1.00000
     12     -27.4427      1.00000
     13     -27.4328      1.00000
     14     -27.4214      1.00000
     15     -27.3997      1.00000
     16     -27.3748      1.00000
     17     -27.3331      1.00000
     18     -27.2946      1.00000
     19     -20.5737      1.00000
     20     -20.2219      1.00000
     21     -20.1378      1.00000
     22     -19.8285      1.00000
     23     -19.4547      1.00000
     24     -19.3851      1.00000
     25       3.3327      1.00000
     26       6.1386      1.00000
     27       6.3139      1.00000
     28       6.6452      1.00000
     29       6.6847      1.00000
     30       6.6857      1.00000
     31       7.2943      1.00000
     32       7.5014      1.00000
     33       7.7790      1.00000
     34       8.5331      1.00000
     35       8.6196      1.00000
     36       8.7117      1.00000
     37       8.7814      1.00000
     38       8.8268      1.00000
     39       9.1558      1.00000
     40       9.2009      1.00000
     41       9.2627      1.00000
     42       9.3144      1.00000
     43       9.3824      1.00000
     44       9.4854      1.00000
     45       9.4900      1.00000
     46       9.5988      1.00000
     47       9.7403      1.00000
     48      10.0026      1.00000
     49      10.0657      1.00014
     50      10.0945      1.00062
     51      10.2625      1.01966
     52      10.8740     -0.00000
     53      10.9475     -0.00000
     54      11.0849     -0.00000
     55      11.4807     -0.00000
     56      11.6075     -0.00000
     57      11.8448     -0.00000
     58      12.1559     -0.00000
     59      12.3841     -0.00000
     60      12.5017     -0.00000
[...]
     84      25.8096      0.00000
     85      26.2695      0.00000
     86      27.5841      0.00000
     87      27.7572      0.00000
     88      28.6656      0.00000
     89      28.7375      0.00000
     90      29.1396      0.00000
     91      30.2448      0.00000
     92      30.3556      0.00000
     93      30.4127      0.00000
     94      30.6914      0.00000
     95      30.8900      0.00000
     96      31.0269      0.00000
     97      31.6218      0.00000
     98      31.9443      0.00000

[...]

 spin component 2

[...]

 k-point   225 :       0.4706    0.4444   -0.4444
  band No.  band energies     occupation
      1     -53.6555      1.00000
      2     -53.6301      1.00000
      3     -53.3533      1.00000
      4     -53.3530      1.00000
      5     -43.9136      1.00000
      6     -43.8164      1.00000
      7     -27.7981      1.00000
      8     -27.7442      1.00000
      9     -27.6511      1.00000
     10     -27.6456      1.00000
     11     -27.4833      1.00000
     12     -27.4037      1.00000
     13     -27.3791      1.00000
     14     -27.3329      1.00000
     15     -27.2719      1.00000
     16     -27.2440      1.00000
     17     -27.1718      1.00000
     18     -27.1545      1.00000
     19     -20.9108      1.00000
     20     -20.8115      1.00000
     21     -20.3761      1.00000
     22     -20.0346      1.00000
     23     -19.9589      1.00000
     24     -19.6668      1.00000
     25       6.1363      1.00000
     26       6.4604      1.00000
     27       6.9587      1.00000
     28       6.9973      1.00000
     29       7.3590      1.00000
     30       7.5365      1.00000
     31       7.7161      1.00000
     32       7.8619      1.00000
     33       7.8932      1.00000
     34       8.0327      1.00000
     35       8.1150      1.00000
     36       8.2066      1.00000
     37       8.8707      1.00000
     38       8.9783      1.00000
     39       9.0012      1.00000
     40       9.0308      1.00000
     41       9.2191      1.00000
     42       9.3662      1.00000
     43       9.9850      1.00000
     44      10.1697      1.01148
     45      10.2045      1.02614
     46      10.3278      0.74261
     47      10.4048      0.14745
     48      10.5801     -0.00366
     49      10.9398     -0.00000
     50      11.0777     -0.00000
     51      11.1513     -0.00000
     52      11.3814     -0.00000
     53      11.5532     -0.00000
     54      11.6514     -0.00000
     55      11.7909     -0.00000
     56      12.2689     -0.00000
     57      12.3140     -0.00000
     58      12.8617     -0.00000
     59      13.0501     -0.00000
     60      13.2646      0.00000
[...]
     84      24.0273      0.00000
     85      24.6050      0.00000
     86      24.6325      0.00000
     87      24.8858      0.00000
     88      25.4077      0.00000
     89      25.4572      0.00000
     90      25.5718      0.00000
     91      26.3781      0.00000
     92      26.4250      0.00000
     93      27.0973      0.00000
     94      27.7016      0.00000
     95      30.3767      0.00000
     96      30.4648      0.00000
     97      31.2875      0.00000
     98      32.1536      0.00000

 soft charge-density along one line, spin component           1
         0         1         2         3         4         5         6         7         8         9
x    64.4773    0.0000    8.3033    0.0000    6.0268    0.0000    0.2290    0.0000   -0.1933    0.0000
x     0.0045    0.0000   -0.0001    0.0000    0.0000    0.0000   -0.0000    0.0000    0.0000    0.0000
y    64.4773    0.0000   -2.9130    2.9130    0.0000    6.0020   -0.8445   -0.8445    3.8499   -0.0000
y     0.0248   -0.0248   -0.0000   -0.8547    0.0751    0.0751   -0.2698    0.0000   -0.0203    0.0203
y    -0.0000   -0.0900   -0.0216   -0.0216    0.0000   -0.0000   -0.0059    0.0059    0.0000    0.0024
y    -0.0005   -0.0005    0.0001   -0.0000    0.0000   -0.0000    0.0000    0.0000    0.0000    0.0000
y    -0.0000    0.0000   -0.0000    0.0000    0.0000    0.0000   -0.0000   -0.0000    0.0000    0.0000
z    64.4773    0.0000   -2.9130   -2.9130    0.0000   -6.0020   -0.8445    0.8445    3.8499    0.0000
z     0.0248    0.0248   -0.0000    0.8547    0.0751   -0.0751   -0.2698   -0.0000   -0.0203   -0.0203
z    -0.0000    0.0900   -0.0216    0.0216    0.0000    0.0000   -0.0059   -0.0059    0.0000   -0.0024
z    -0.0005    0.0005    0.0001    0.0000    0.0000    0.0000    0.0000   -0.0000    0.0000   -0.0000
z    -0.0000   -0.0000   -0.0000   -0.0000   -0.0000   -0.0000   -0.0000    0.0000    0.0000    0.0000
 total charge-density along one line
x    96.0000    0.0000    2.0299    0.0000   18.2181   -0.0000   -0.3560    0.0000   -0.1921   -0.0000
x     0.0517   -0.0000    0.0273   -0.0000    0.0009    0.0000   -0.0005   -0.0000   -0.0002   -0.0000
x    -0.0016   -0.0000   -0.0002   -0.0000    0.0001    0.0000    0.0000   -0.0000    0.0004    0.0000
y    96.0000    0.0000    0.5112   -0.5112    0.0000    5.4796    1.6600    1.6600    0.0319    0.0000
y     1.3045   -1.3045    0.0000   -1.0625    0.4638    0.4638    0.7031   -0.0000    0.0156   -0.0156
y    -0.0000   -0.0393   -0.0338   -0.0338   -0.0010   -0.0000   -0.0023    0.0023   -0.0000   -0.0032
y     0.0017    0.0017   -0.0071    0.0000   -0.0015    0.0015    0.0000   -0.0019    0.0000   -0.0000
y    -0.0009    0.0000    0.0005   -0.0005   -0.0000   -0.0005   -0.0003   -0.0003   -0.0009    0.0000
y    -0.0000    0.0001   -0.0000    0.0001    0.0001    0.0002    0.0001    0.0000   -0.0001    0.0001
y     0.0000    0.0002   -0.0000   -0.0001    0.0002   -0.0000    0.0000   -0.0001   -0.0000    0.0001
y    -0.0000   -0.0000
z    96.0000    0.0000    0.5112    0.5112    0.0000   -5.4796    1.6600   -1.6600    0.0319    0.0000
z     1.3045    1.3045    0.0000    1.0625    0.4638   -0.4638    0.7031    0.0000    0.0156    0.0156
z    -0.0000    0.0393   -0.0338    0.0338   -0.0010    0.0000   -0.0023   -0.0023   -0.0000    0.0032
z     0.0017   -0.0017   -0.0071   -0.0000   -0.0015   -0.0015    0.0000    0.0019    0.0000    0.0000
z    -0.0009   -0.0000    0.0005    0.0005   -0.0000    0.0005   -0.0003    0.0003   -0.0009   -0.0000
z    -0.0000   -0.0001   -0.0000   -0.0001    0.0001   -0.0002    0.0001   -0.0000   -0.0001   -0.0001
z     0.0000   -0.0002   -0.0000    0.0001    0.0002    0.0000    0.0000    0.0001   -0.0000   -0.0001
z    -0.0000   -0.0000

 soft charge-density along one line, spin component           2
         0         1         2         3         4         5         6         7         8         9
x     0.5173    0.0000   -0.1241    0.0000    0.0120    0.0000    0.0071    0.0000    0.0109    0.0000
x    -0.0020    0.0000    0.0002    0.0000    0.0000    0.0000    0.0000    0.0000    0.0000    0.0000
y     0.5173    0.0000    0.0108   -0.0108    0.0000    0.1225   -0.0061   -0.0061   -0.0404    0.0000
y    -0.0043    0.0043   -0.0000   -0.0186    0.0001    0.0001    0.0092   -0.0000   -0.0008    0.0008
y     0.0000    0.0029    0.0003    0.0003   -0.0017    0.0000    0.0000   -0.0000   -0.0000   -0.0000
y     0.0000    0.0000   -0.0000    0.0000   -0.0000    0.0000   -0.0000   -0.0000    0.0000    0.0000
y    -0.0000    0.0000   -0.0000    0.0000    0.0000   -0.0000   -0.0000   -0.0000    0.0000    0.0000
z     0.5173    0.0000    0.0108    0.0108    0.0000   -0.1225   -0.0061    0.0061   -0.0404   -0.0000
z    -0.0043   -0.0043   -0.0000    0.0186    0.0001   -0.0001    0.0092    0.0000   -0.0008   -0.0008
z     0.0000   -0.0029    0.0003   -0.0003   -0.0017   -0.0000    0.0000    0.0000   -0.0000    0.0000
z     0.0000   -0.0000   -0.0000   -0.0000   -0.0000   -0.0000   -0.0000    0.0000    0.0000   -0.0000
z    -0.0000   -0.0000   -0.0000   -0.0000   -0.0000    0.0000   -0.0000    0.0000    0.0000    0.0000
 total charge-density along one line
x     1.3803    0.0000   -0.7289    0.0000    0.3593   -0.0000   -0.0551    0.0000    0.0386    0.0000
x    -0.0057   -0.0000    0.0027   -0.0000    0.0005    0.0000    0.0001   -0.0000   -0.0001   -0.0000
x    -0.0001   -0.0000   -0.0000   -0.0000   -0.0000    0.0000    0.0000   -0.0000    0.0000    0.0000
y     1.3803    0.0000    0.0309   -0.0309    0.0000    0.0425    0.0043    0.0043   -0.4284    0.0000
y    -0.0048    0.0048    0.0000   -0.0350   -0.0022   -0.0022    0.0479   -0.0000   -0.0032    0.0032
y     0.0000    0.0153   -0.0001   -0.0001   -0.0107   -0.0000    0.0002   -0.0002    0.0000   -0.0013
y     0.0001    0.0001   -0.0007   -0.0000   -0.0000    0.0000   -0.0000   -0.0002    0.0000    0.0000
y    -0.0002    0.0000    0.0000   -0.0000   -0.0000   -0.0000    0.0000    0.0000   -0.0000    0.0000
y    -0.0000    0.0000   -0.0000    0.0000    0.0000    0.0000    0.0000    0.0000   -0.0000    0.0000
y     0.0000    0.0000   -0.0000   -0.0000    0.0000    0.0000    0.0000   -0.0000    0.0000    0.0000
y    -0.0000    0.0000
z     1.3803    0.0000    0.0309    0.0309    0.0000   -0.0425    0.0043   -0.0043   -0.4284    0.0000
z    -0.0048   -0.0048    0.0000    0.0350   -0.0022    0.0022    0.0479    0.0000   -0.0032   -0.0032
z    -0.0000   -0.0153   -0.0001    0.0001   -0.0107    0.0000    0.0002    0.0002    0.0000    0.0013
z     0.0001   -0.0001   -0.0007    0.0000   -0.0000   -0.0000   -0.0000    0.0002    0.0000   -0.0000
z    -0.0002   -0.0000    0.0000    0.0000   -0.0000    0.0000    0.0000   -0.0000   -0.0000   -0.0000
z    -0.0000   -0.0000   -0.0000   -0.0000    0.0000   -0.0000    0.0000   -0.0000   -0.0000   -0.0000
z     0.0000   -0.0000   -0.0000    0.0000    0.0000   -0.0000    0.0000    0.0000    0.0000   -0.0000
z    -0.0000    0.0000

------------------------ aborting loop because EDIFF is reached ----------------------------------------

 total charge

# of ion       s       p       d       tot
    1        2.319   6.201   2.984  11.504
    2        2.352   6.225   3.050  11.626
    3        2.352   6.225   3.050  11.626
    4        2.319   6.201   2.984  11.504
    5        2.246   6.021   2.595  10.862
    6        2.246   6.021   2.595  10.862
    7        0.484   0.465   7.310   8.259
    8        0.481   0.460   7.272   8.213
tot         14.798  37.818  31.839  84.455

 magnetization (x)

[...]

  FORCE on cell =-STRESS in cart. coord.  units (eV):
  Direction    XX          YY          ZZ          XY          YZ          ZX
  Alpha Z   597.81592   597.81592   597.81592
  Ewald   -3338.81164 -3338.81164 -3331.42844    73.98091     0.00000    -0.00000
  Hartree   789.81328   789.81328   812.08918    56.62688    -0.00000     0.00000
  E(xc)    -500.45644  -500.45644  -500.77462     0.10658    -0.00000     0.00000
  Local     576.06425   576.06425   551.70080  -126.54929     0.00000    -0.00000
  n-local  -189.92027  -189.83064  -183.03693     0.00174     0.55968     0.10197
  augment   642.16034   642.16034   638.68561    -1.89935     0.00000    -0.00000
  Kinetic  1426.82682  1427.86868  1411.81135    -3.31531    -0.08841    -1.48162
  Fock        0.00000     0.00000     0.00000     0.00000     0.00000     0.00000
  Total       4.05801     4.05801    -3.13713    -1.04673    -0.00000     0.00000
  in kB      57.89012    57.89012   -44.75311   -14.93221    -0.00000     0.00000

 VOLUME and BASIS-vectors are now :
  energy-cutoff  :      410.53
  volume of cell :      112.31
      direct lattice vectors                 reciprocal lattice vectors
     1.914696000  1.914696000  0.000000000     0.261138061  0.261138061  0.000000000
    -3.829391000  3.829391000  3.829391000    -0.065284532  0.065284532  0.130569064
     3.829391000 -3.829391000  3.829391000     0.065284532 -0.065284532  0.130569064

  length of vectors
     2.707789051  6.632699774  6.632699774     0.369304987  0.159913792  0.159913792

 FORCES acting on ions
    electron-ion (+dipol)            ewald-force                    non-local-force                 convergence-correction
   -.940E+02 0.940E+02 -.140E-03   0.933E+02 -.933E+02 0.313E-03   0.106E+01 -.106E+01 0.000E+00   -.271E+00 0.271E+00 -.418E-05
   -.462E-03 0.463E-03 -.262E+01   0.287E-03 -.287E-03 0.522E-04   0.000E+00 0.000E+00 0.769E+00   -.105E-04 0.105E-04 -.170E-01
   -.463E-03 0.462E-03 0.261E+01   0.287E-03 -.287E-03 -.791E-03   0.000E+00 0.000E+00 -.769E+00   -.105E-04 0.105E-04 0.170E-01
   0.940E+02 -.940E+02 -.140E-03   -.933E+02 0.933E+02 0.313E-03   -.106E+01 0.106E+01 0.000E+00   0.271E+00 -.271E+00 -.418E-05
   0.922E+02 -.922E+02 -.140E-03   -.933E+02 0.933E+02 0.313E-03   -.795E+00 0.795E+00 0.694E-17   0.265E+00 -.265E+00 -.368E-05
   -.922E+02 0.922E+02 -.140E-03   0.933E+02 -.933E+02 0.313E-03   0.795E+00 -.795E+00 -.139E-16   -.265E+00 0.265E+00 -.368E-05
   0.782E-04 -.784E-04 -.136E-03   -.274E-03 0.274E-03 0.361E-04   -.271E-19 0.271E-19 0.000E+00   0.816E-05 -.816E-05 0.844E-05
   0.776E-04 -.774E-04 0.450E-03   -.274E-03 0.274E-03 -.548E-03   -.678E-20 0.678E-20 0.000E+00   0.810E-05 -.810E-05 -.334E-05
   -.243E-02 0.243E-02 -.164E-02   -.113E-12 -.842E-13 0.987E-13   0.111E-15 -.111E-15 0.104E-15   0.426E-07 -.426E-07 0.441E-05

 POSITION                                       TOTAL-FORCE (eV/Angst)
      0.00000      0.00000      0.00000         0.125619     -0.125619      0.000000
      0.00000      1.91470      1.91470        -0.000000      0.000000     -1.862217
      0.00000      1.91470      5.74409        -0.000000      0.000000      1.862217
      1.91470     -1.91470      3.82939        -0.125619      0.125619      0.000000
     -1.91470      1.91470      3.82939        -1.621107      1.621107      0.000000
      0.00000      0.00000      3.82939         1.621107     -1.621107      0.000000
      1.91470      0.00000      1.91470        -0.000000      0.000000      0.000000
      1.91470      0.00000      5.74409        -0.000000      0.000000     -0.000000
    total drift:                               -0.002434      0.002434     -0.001632

  FREE ENERGIE OF THE ION-ELECTRON SYSTEM (eV)
  free  energy   TOTEN  =       -68.74781246 eV

  energy  without entropy=      -68.74768866  energy(sigma->0) =      -68.74777119

 total charge

[...]

 magnetization (x)

# of ion       s       p       d       tot
    1       -0.001   0.001   0.035   0.036
    2        0.005   0.007   0.319   0.331
    3        0.005   0.007   0.319   0.331
    4       -0.001   0.001   0.035   0.036
    5       -0.001   0.001   0.001   0.002
    6       -0.001   0.001   0.001   0.002
    7        0.002  -0.001   0.271   0.273
    8        0.003  -0.001   0.289   0.291
tot          0.012   0.017   1.271   1.300